NAME : Unnamed.926.tour
COMMENT : Length = 926
COMMENT : Found by LKH [Keld Helsgaun] Tue Jan 13 16:45:19 2015
TYPE : TOUR
DIMENSION : 111
TOUR_SECTION
1
3
2
111
4
7
31
9
5
8
20
39
65
58
27
36
11
17
40
12
13
15
22
94
85
91
97
59
101
98
93
96
105
88
107
100
86
95
106
89
52
71
77
76
84
67
81
56
45
78
74
83
57
38
33
41
29
32
25
37
16
53
79
46
80
60
18
75
82
50
64
63
47
69
61
51
72
68
48
104
109
54
62
70
99
66
102
90
103
92
49
73
55
87
108
26
44
24
110
43
30
23
14
34
28
35
21
19
42
10
6
-1
EOF
